InboundTrucks  = 12;
OutboundTrucks = 8;
InboundDoors   = 4;
OutboundDoors  = 4;
ReleaseTime    = [25,58,14,22,0,80,80,37,29,51,26,51];
UnloadTime     = [44,38,13,21,18,16,25,11,25,26,13,23];
LoadTime       = [9,16,15,15,21,23,28,11];
TransferTime   = [| 0,0,35,44,0,0,19,40 | 13,0,0,31,44,22,0,44 | 0,0,0,34,46,40,43,17 | 15,19,29,40,50,42,35,37 | 31,0,35,23,27,0,13,24 | 0,10,0,38,29,22,31,10 | 0,14,41,26,31,31,17,0 | 48,25,24,12,0,48,38,30 | 29,0,0,45,30,0,21,11 | 37,37,34,25,0,10,15,25 | 32,0,25,41,47,17,26,42 | 10,31,41,0,50,24,36,0 |];
